
(set-logic ALL) 

(declare-datatype MyList ((Nil) (Cons (head Real) (tail MyList)) )) 
(declare-fun l0 () MyList) 
(declare-fun l1 () MyList) 
(declare-fun l2 () MyList) 
(declare-fun l3 () MyList) 
(declare-fun i0 () Real) 
(declare-fun i1 () Real) 
(assert (is-Nil Nil) )
(assert (= l3 l1) )
(assert (or (= l2 Nil) (= l0 Nil) (= l0 l3) (= l0 Nil)) )
(assert (or (= l3 Nil) (is-Nil l3) (= l2 l1)) )
(assert (= l0 Nil) )
(assert (= l2 Nil) )
(assert (or (= l0 Nil) (= l0 Nil) (= l2 Nil) (= l0 Nil)) )
(assert (not (= l3 l3)) )
(check-sat)
